Running HiGHS 1.8.1 (git hash: 4a7f24a): Copyright (c) 2024 HiGHS under MIT licence terms
Reading model file  77Vertices.lp  returns a status of  HighsStatus.kOk
Coefficient ranges:
  Matrix [1e-03, 1e+03]
  Cost   [1e+00, 1e+00]
  Bound  [1e+00, 2e+09]
  RHS    [1e+00, 1e+03]
Presolving model
1493 rows, 1530 cols, 6251 nonzeros  0s
932 rows, 992 cols, 4951 nonzeros  0s
492 rows, 454 cols, 2286 nonzeros  0s
427 rows, 385 cols, 1731 nonzeros  0s

Solving MIP model with:
   427 rows
   385 cols (49 binary, 0 integer, 7 implied int., 329 continuous)
   1731 nonzeros
MIP-Timing:        0.02 - starting analytic centre calculation

Src: B => Branching; C => Central rounding; F => Feasibility pump; H => Heuristic; L => Sub-MIP;
     P => Empty MIP; R => Randomized rounding; S => Solve LP; T => Evaluate node; U => Unbounded;
     z => Trivial zero; l => Trivial lower; u => Trivial upper; p => Trivial point

        Nodes      |    B&B Tree     |            Objective Bounds              |  Dynamic Constraints |       Work      
Src  Proc. InQueue |  Leaves   Expl. | BestBound       BestSol              Gap |   Cuts   InLp Confl. | LpIters     Time

         0       0         0   0.00%   -0.853559706    inf                  inf        0      0      0         0     0.0s
         0       0         0   0.00%   -0.2655179955   inf                  inf        0      0      2       482     0.0s

2.0% inactive integer columns, restarting
Model after restart has 419 rows, 382 cols (48 bin., 0 int., 6 impl., 328 cont.), and 1707 nonzeros

MIP-Timing:        0.27 - starting analytic centre calculation
         0       0         0   0.00%   -0.2234509131   inf                  inf       47      0      0      3559     0.3s
         0       0         0   0.00%   -0.2234483653   inf                  inf       47     43      4      3786     0.3s

Symmetry detection completed in 0.0s
No symmetry present

 B     108      10        41  59.65%   -0.2047914399   -0.1162218415     76.21%      430    103    689     25710     1.4s
 T     108      10        41  59.65%   -0.2047914399   -0.1162218415     76.21%      431    103    689     25710     1.4s
 T     144      12        56  60.29%   -0.2003704241   -0.1162218415     72.40%      559     99    829     26965     1.5s
 T     148      12        58  60.30%   -0.2003704241   -0.1162218415     72.40%      561     99    847     27148     1.5s
       250       0       107 100.00%   -0.1162218415   -0.1162218415      0.00%     1267    119   1213     30644     1.8s

Solving report
  Model             77Vertices
  Status            Optimal
  Primal bound      -0.1162218415
  Dual bound        -0.1162218415
  Gap               0% (tolerance: 0.01%)
  P-D integral      0.225104243648
  Solution status   feasible
                    -0.1162218415 (objective)
                    0 (bound viol.)
                    7.22533144426e-13 (int. viol.)
                    0 (row viol.)
  Timing            1.79 (total)
                    0.00 (presolve)
                    0.00 (solve)
                    0.00 (postsolve)
  Max sub-MIP depth 3
  Nodes             250
  Repair LPs        0 (0 feasible; 0 iterations)
  LP iterations     30644 (total)
                    14813 (strong br.)
                    1822 (separation)
                    6641 (heuristics)
Model status =  Optimal

Optimal objective =  -0.11622184149986947
Iteration count =  30644
Primal solution status =  Feasible
Dual solution status =  None
Basis validity =  Not valid
Writing the solution to ./77Vertices.sol

